p cnf 7230 17
-5170 -5899 6022 0
5899 -6022 0
-5723 -5909 -6027 0
-5721 -5913 6025 0
-5719 -5919 -6023 0
5723 -6028 0
5721 -6026 0
5719 -6024 0
6027 6028 0
-6025 6026 0
6023 6024 0
5909 -6028 0
5913 -6026 0
5919 -6024 0
5905 -6030 0
6021 6022 0
-6021 -6022 0
